cost: 1147.10
Route 1:           0    7    6   35   45   20    0
Route 2:           0   24   21   15   46   42    0
Route 3:           0   27   30   36   19   11    8    4    0
Route 4:           0   29   41   13   10   25   17    2   39    0
Route 5:           0   31   22   23    5   14    0
Route 6:           0   32   12    9   40   18    0
Route 7:           0   33   16   47    3   49    0
Route 8:           0   37   38   50    1   48   34    0
Route 9:           0   44   43   28   26    0
